W=7;
H=7;

MAX_TIME=15;
MAX_TRACKS=12;

TARGET=(3,7);

TRAINS=[(7,1,RIGHT),(4,1,TOP)];
DECOYS=[];

INIT_POS=[
(1,5,CORNER_DR),
(3,5,ESWITCH_D_T_R),
(3,6,STRAIGHT_RL),
(3,7,STRAIGHT_RL),
(4,1,STRAIGHT_TD),
(7,1,STRAIGHT_RL),
];
TUNNEL_PAIRS=[
  (1, 1, DOWN, 5, 5, LEFT),
];

GATES=[
(3,6,1,false),
];
ACTIVATIONS=[
(1,5,1),
];

DSWITCHES=[];
STATIONS=[];

SEMAPHORE_SUPPLY=0;
